;; produced by z3_gnatprove.drv ;;
(set-info :smt-lib-version 2.5)
(set-info :source |VC generated by SPARK 2014|)
(set-info :category industrial)
(set-info :status unknown)
;;; generated by SMT-LIB2 driver
;;; SMT-LIB2 driver: bit-vectors, common part
;;; SMT-LIB2: integer arithmetic
(declare-sort us_private 0)

(declare-const us_null_ext__ us_private)

(declare-datatypes ()
  ((int__ref (int__refqtmk (int__content Int)))))

(declare-datatypes ()
  ((bool__ref (bool__refqtmk (bool__content Bool)))))

;; "length"
(define-fun length ((x Int) (y Int)) Int
  (ite (<= x y) (+ (- y x) 1) 0))

(declare-sort integer 0)

;; "integer'int"
(declare-fun integerqtint (integer) Int)

;; "integer'axiom"
(assert
  (forall ((i integer))
    (and
      (<= (- 2147483648) (integerqtint i))
      (<= (integerqtint i) 2147483647))))

;; "in_range"
(define-fun in_range ((x Int)) Bool
  (and (<= (- 2147483648) x) (<= x 2147483647)))

(declare-sort natural 0)

;; "natural'int"
(declare-fun naturalqtint (natural) Int)

;; "natural'axiom"
(assert
  (forall ((i natural))
    (and (<= 0 (naturalqtint i)) (<= (naturalqtint i) 2147483647))))

;; "in_range"
(define-fun in_range1 ((x Int)) Bool
  (and (<= 0 x) (<= x 2147483647)))

;; "to_rep"
(define-fun to_rep ((x natural)) Int
  (naturalqtint x))

;; "of_rep"
(declare-fun of_rep (Int) natural)

;; "inversion_axiom"
(assert
  (forall ((x natural)) (! (= (of_rep (to_rep x)) x) :pattern ((to_rep x)) )))

;; "range_axiom"
(assert
  (forall ((x natural)) (! (in_range1 (to_rep x)) :pattern ((to_rep x)) )))

;; "coerce_axiom"
(assert
  (forall ((x Int))
    (! (=> (in_range1 x) (= (to_rep (of_rep x)) x)) :pattern ((to_rep
                                                                (of_rep x))) )))

;; "in_range"
(define-fun in_range2 ((x Int)) Bool
  (and (<= 1 x) (<= x 2147483647)))

;; "to_rep"
(define-fun to_rep1 ((x integer)) Int
  (integerqtint x))

;; "of_rep"
(declare-fun of_rep1 (Int) integer)

;; "inversion_axiom"
(assert
  (forall ((x integer))
    (! (= (of_rep1 (to_rep1 x)) x) :pattern ((to_rep1 x)) )))

;; "range_axiom"
(assert
  (forall ((x integer)) (! (in_range (to_rep1 x)) :pattern ((to_rep1 x)) )))

;; "coerce_axiom"
(assert
  (forall ((x Int))
    (! (=> (in_range x) (= (to_rep1 (of_rep1 x)) x)) :pattern ((to_rep1
                                                                 (of_rep1 x))) )))

(declare-datatypes ()
  ((us_split_fields
   (us_split_fieldsqtmk
   (rec__frame_condition__cell__value natural)(rec__frame_condition__cell__max_left natural)(rec__frame_condition__cell__max_right natural)))))

(declare-datatypes ()
  ((us_rep (us_repqtmk (us_split_fields1 us_split_fields)))))

(declare-const value__size Int)

(declare-const object__size Int)

(declare-const alignment Int)

;; "value__size_axiom"
(assert (<= 0 value__size))

;; "object__size_axiom"
(assert (<= 0 object__size))

;; "alignment_axiom"
(assert (<= 0 alignment))

(declare-const frame_condition__cell__value__first__bit Int)

(declare-const frame_condition__cell__value__last__bit Int)

(declare-const frame_condition__cell__value__position Int)

;; "frame_condition__cell__value__first__bit_axiom"
(assert (<= 0 frame_condition__cell__value__first__bit))

;; "frame_condition__cell__value__last__bit_axiom"
(assert
  (< frame_condition__cell__value__first__bit frame_condition__cell__value__last__bit))

;; "frame_condition__cell__value__position_axiom"
(assert (<= 0 frame_condition__cell__value__position))

(declare-const frame_condition__cell__max_left__first__bit Int)

(declare-const frame_condition__cell__max_left__last__bit Int)

(declare-const frame_condition__cell__max_left__position Int)

;; "frame_condition__cell__max_left__first__bit_axiom"
(assert (<= 0 frame_condition__cell__max_left__first__bit))

;; "frame_condition__cell__max_left__last__bit_axiom"
(assert
  (< frame_condition__cell__max_left__first__bit frame_condition__cell__max_left__last__bit))

;; "frame_condition__cell__max_left__position_axiom"
(assert (<= 0 frame_condition__cell__max_left__position))

(declare-const frame_condition__cell__max_right__first__bit Int)

(declare-const frame_condition__cell__max_right__last__bit Int)

(declare-const frame_condition__cell__max_right__position Int)

;; "frame_condition__cell__max_right__first__bit_axiom"
(assert (<= 0 frame_condition__cell__max_right__first__bit))

;; "frame_condition__cell__max_right__last__bit_axiom"
(assert
  (< frame_condition__cell__max_right__first__bit frame_condition__cell__max_right__last__bit))

;; "frame_condition__cell__max_right__position_axiom"
(assert (<= 0 frame_condition__cell__max_right__position))

(declare-const dummy us_rep)

(declare-datatypes ()
  ((map__ref (map__refqtmk (map__content (Array Int us_rep))))))

(declare-const a__first integer)

(declare-const a__last integer)

(declare-datatypes ()
  ((t (tqtmk (rec__first integer)(rec__last integer)))))

;; "mk"
(declare-fun mk (Int
  Int) t)

;; "mk_def"
(assert
  (forall ((f Int) (l Int))
    (! (=>
         (in_range f)
         (=>
           (in_range l)
           (and
             (= (to_rep1 (rec__first (mk f l))) f)
             (= (to_rep1 (rec__last (mk f l))) l)))) :pattern ((mk f l)) )))

;; "dynamic_property"
(define-fun dynamic_property ((range_first Int) (range_last Int) (low Int) (high Int)) Bool
  (and
    (in_range low)
    (and
      (in_range high)
      (=> (<= low high) (and (in_range2 low) (in_range2 high))))))

(declare-datatypes ()
  ((us_t (us_tqtmk (elts (Array Int us_rep))(rt t)))))

;; "to_array"
(define-fun to_array ((a us_t)) (Array Int us_rep)
  (elts a))

;; "of_array"
(define-fun of_array ((a (Array Int us_rep)) (f Int) (l Int)) us_t
  (us_tqtmk a (mk f l)))

(declare-const value__size1 Int)

(declare-const object__size1 Int)

(declare-const component__size Int)

(declare-const alignment1 Int)

;; "value__size_axiom"
(assert (<= 0 value__size1))

;; "object__size_axiom"
(assert (<= 0 object__size1))

;; "component__size_axiom"
(assert (<= 0 component__size))

;; "alignment_axiom"
(assert (<= 0 alignment1))

(declare-const a (Array Int us_rep))

(declare-const k Int)

(declare-const max Int)

;; "max'unused"
(define-fun maxqtunused () int__ref
  (int__refqtmk max))

;; "k'unused"
(define-fun kqtunused () int__ref
  (int__refqtmk k))

;; "a'unused"
(define-fun aqtunused () map__ref
  (map__refqtmk a))

;; "a'unused"
(define-fun aqtunused1 () map__ref
  (map__refqtmk a))

;; "Assume"
(assert (dynamic_property 1 2147483647 (to_rep1 a__first) (to_rep1 a__last)))

(declare-const o Int)

;; "Ensures"
(assert (= (to_rep1 a__last) o))

;; "to_rep'result'unused"
(define-fun to_repqtresultqtunused () Int
  o)

(declare-const o1 Int)

;; "Ensures"
(assert (= (to_rep1 a__first) o1))

;; "to_rep'result'unused"
(define-fun to_repqtresultqtunused1 () Int
  o1)

;; "map__content'result'unused"
(define-fun map__contentqtresultqtunused () (Array Int us_rep)
  a)

;; "temp___old_453"
(define-fun temp___old_453 () us_t
  (of_array a o1 o))

;; "of_array'result'unused"
(define-fun of_arrayqtresultqtunused () us_t
  temp___old_453)

;; "Assume"
(assert true)

;; "Assume"
(assert (in_range2 k))

;; "Assume"
(assert true)

;; "Assume"
(assert (in_range1 max))

(declare-const o2 Int)

;; "Ensures"
(assert (= (to_rep1 a__last) o2))

;; "to_rep'result'unused"
(define-fun to_repqtresultqtunused2 () Int
  o2)

(declare-const o3 Int)

;; "Ensures"
(assert (= (to_rep1 a__first) o3))

;; "to_rep'result'unused"
(define-fun to_repqtresultqtunused3 () Int
  o3)

;; "map__content'result'unused"
(define-fun map__contentqtresultqtunused1 () (Array Int us_rep)
  a)

;; "of_array'result'unused"
(define-fun of_arrayqtresultqtunused1 () us_t
  (of_array a o3 o2))

(declare-const o4 Int)

;; "Ensures"
(assert (= (to_rep1 a__last) o4))

;; "to_rep'result'unused"
(define-fun to_repqtresultqtunused4 () Int
  o4)

(declare-const o5 Int)

;; "Ensures"
(assert (= (to_rep1 a__first) o5))

;; "to_rep'result'unused"
(define-fun to_repqtresultqtunused5 () Int
  o5)

;; "o"
(define-fun o6 () Int
  (length o5 o4))

;; "length'result'unused"
(define-fun lengthqtresultqtunused () Int
  o6)

;; "o"
(define-fun o7 () Bool
  (ite (= o6 0) true false))

;; "infix ='result'unused"
(define-fun infix_eqqtresultqtunused () Bool
  o7)

(declare-const spark__branch Bool)

;; "spark__branch'unused"
(define-fun spark__branchqtunused () bool__ref
  (bool__refqtmk spark__branch))

;; "H"
(assert (= spark__branch o7))

;; "bool__content'result'unused"
(define-fun bool__contentqtresultqtunused () Bool
  spark__branch)

;; "H"
(assert (not (= spark__branch true)))

(declare-const o8 Int)

;; "Ensures"
(assert (= (to_rep1 a__last) o8))

;; "to_rep'result'unused"
(define-fun to_repqtresultqtunused6 () Int
  o8)

(declare-const o9 Int)

;; "Ensures"
(assert (= (to_rep1 a__first) o9))

;; "to_rep'result'unused"
(define-fun to_repqtresultqtunused7 () Int
  o9)

;; "map__content'result'unused"
(define-fun map__contentqtresultqtunused2 () (Array Int us_rep)
  a)

;; "of_array'result'unused"
(define-fun of_arrayqtresultqtunused2 () us_t
  (of_array a o9 o8))

(declare-const o10 Int)

;; "Ensures"
(assert (= (to_rep1 a__first) o10))

;; "to_rep'result'unused"
(define-fun to_repqtresultqtunused8 () Int
  o10)

;; "Ensures"
(assert (in_range2 o10))

;; "range_check_'result'unused"
(define-fun range_check_qtresultqtunused () Int
  o10)

(declare-const k1 Int)

;; "k'unused"
(define-fun kqtunused1 () int__ref
  (int__refqtmk k1))

;; "H"
(assert (= k1 o10))

(declare-const max1 Int)

;; "max'unused"
(define-fun maxqtunused1 () int__ref
  (int__refqtmk max1))

;; "H"
(assert (= max1 0))

(declare-const o11 Int)

;; "Ensures"
(assert (= (to_rep1 a__last) o11))

;; "to_rep'result'unused"
(define-fun to_repqtresultqtunused9 () Int
  o11)

(declare-const o12 Int)

;; "Ensures"
(assert (= (to_rep1 a__first) o12))

;; "to_rep'result'unused"
(define-fun to_repqtresultqtunused10 () Int
  o12)

;; "map__content'result'unused"
(define-fun map__contentqtresultqtunused3 () (Array Int us_rep)
  a)

;; "temp___loop_entry_376"
(define-fun temp___loop_entry_376 () us_t
  (of_array a o12 o11))

;; "of_array'result'unused"
(define-fun of_arrayqtresultqtunused3 () us_t
  temp___loop_entry_376)

;; "temp___loop_entry_374'unused"
(define-fun temp___loop_entry_374qtunused () Int
  max1)

;; "int__content'result'unused"
(define-fun int__contentqtresultqtunused () Int
  max1)

;; "temp___loop_entry_373'unused"
(define-fun temp___loop_entry_373qtunused () Int
  k1)

;; "int__content'result'unused"
(define-fun int__contentqtresultqtunused1 () Int
  k1)

(declare-const spark__branch1 Bool)

(declare-const max2 Int)

;; "max'unused"
(define-fun maxqtunused2 () int__ref
  (int__refqtmk max2))

;; "spark__branch'unused"
(define-fun spark__branchqtunused1 () bool__ref
  (bool__refqtmk spark__branch1))

(declare-const int__contentqtresultqtunused2 Int)

;; "H"
(assert (= int__contentqtresultqtunused2 max1))

(declare-const o13 Int)

;; "Ensures"
(assert (= (to_rep1 a__last) o13))

(declare-const to_repqtresultqtunused11 Int)

;; "H"
(assert (= to_repqtresultqtunused11 o13))

(declare-const o14 Int)

;; "Ensures"
(assert (= (to_rep1 a__first) o14))

(declare-const to_repqtresultqtunused12 Int)

;; "H"
(assert (= to_repqtresultqtunused12 o14))

(declare-const map__contentqtresultqtunused4 (Array Int us_rep))

;; "H"
(assert (= map__contentqtresultqtunused4 a))

(declare-const temp___364 us_t)

;; "H"
(assert (= temp___364 (of_array a o14 o13)))

(declare-const of_arrayqtresultqtunused4 us_t)

;; "H"
(assert (= of_arrayqtresultqtunused4 temp___364))

;; "Assert"
(assert (and (<= o14 k1) (<= k1 o13)))

(declare-const int__contentqtresultqtunused3 Int)

;; "H"
(assert (= int__contentqtresultqtunused3 k1))

(declare-const o15 (Array Int us_rep))

;; "H"
(assert (= o15 a))

(declare-const to_arrayqtresultqtunused (Array Int us_rep))

;; "H"
(assert (= to_arrayqtresultqtunused o15))

(declare-const o16 us_rep)

;; "H"
(assert (= o16 (select o15 k1)))

(declare-const getqtresultqtunused us_rep)

;; "H"
(assert (= getqtresultqtunused o16))

(declare-const o17 us_split_fields)

;; "H"
(assert (= o17 (us_split_fields1 o16)))

(declare-const us_split_fieldsqtresultqtunused us_split_fields)

;; "H"
(assert (= us_split_fieldsqtresultqtunused o17))

(declare-const o18 natural)

;; "H"
(assert (= o18 (rec__frame_condition__cell__value o17)))

(declare-const rec__frame_condition__cell__valueqtresultqtunused natural)

;; "H"
(assert (= rec__frame_condition__cell__valueqtresultqtunused o18))

(declare-const o19 Int)

;; "Ensures"
(assert (= (to_rep o18) o19))

(declare-const to_repqtresultqtunused13 Int)

;; "H"
(assert (= to_repqtresultqtunused13 o19))

(declare-const o20 Bool)

;; "H"
(assert (= o20 (ite (< max1 o19) true false)))

(declare-const infix_gtqtresultqtunused Bool)

;; "H"
(assert (= infix_gtqtresultqtunused o20))

;; "H"
(assert (= spark__branch1 o20))

(declare-const bool__contentqtresultqtunused1 Bool)

;; "H"
(assert (= bool__contentqtresultqtunused1 spark__branch1))

(declare-const o21 Int)

(declare-const to_repqtresultqtunused14 Int)

(declare-const o22 Int)

(declare-const to_repqtresultqtunused15 Int)

(declare-const map__contentqtresultqtunused5 (Array Int us_rep))

(declare-const temp___363 us_t)

(declare-const of_arrayqtresultqtunused5 us_t)

(declare-const int__contentqtresultqtunused4 Int)

(declare-const o23 (Array Int us_rep))

(declare-const to_arrayqtresultqtunused1 (Array Int us_rep))

(declare-const o24 us_rep)

(declare-const getqtresultqtunused1 us_rep)

(declare-const o25 us_split_fields)

(declare-const us_split_fieldsqtresultqtunused1 us_split_fields)

(declare-const o26 natural)

(declare-const rec__frame_condition__cell__valueqtresultqtunused1 natural)

(declare-const o27 Int)

(declare-const to_repqtresultqtunused16 Int)

;; "H"
(assert
  (ite (= spark__branch1 true)
    (and
      (= (to_rep1 a__last) o21)
      (and
        (= to_repqtresultqtunused14 o21)
        (and
          (= (to_rep1 a__first) o22)
          (and
            (= to_repqtresultqtunused15 o22)
            (and
              (= map__contentqtresultqtunused5 a)
              (and
                (= temp___363 (of_array a o22 o21))
                (and
                  (= of_arrayqtresultqtunused5 temp___363)
                  (and
                    (and (<= o22 k1) (<= k1 o21))
                    (and
                      (= int__contentqtresultqtunused4 k1)
                      (and
                        (= o23 a)
                        (and
                          (= to_arrayqtresultqtunused1 o23)
                          (and
                            (= o24 (select o23 k1))
                            (and
                              (= getqtresultqtunused1 o24)
                              (and
                                (= o25 (us_split_fields1 o24))
                                (and
                                  (= us_split_fieldsqtresultqtunused1 
                                  o25)
                                  (and
                                    (= o26 (rec__frame_condition__cell__value
                                             o25))
                                    (and
                                      (= rec__frame_condition__cell__valueqtresultqtunused1 
                                      o26)
                                      (and
                                        (= (to_rep o26) o27)
                                        (and
                                          (= to_repqtresultqtunused16 
                                          o27)
                                          (= max2 o27))))))))))))))))))))
    (= max2 max1)))

(declare-const o28 Int)

;; "Ensures"
(assert (= (to_rep1 a__last) o28))

;; "to_rep'result'unused"
(define-fun to_repqtresultqtunused17 () Int
  o28)

(declare-const o29 Int)

;; "Ensures"
(assert (= (to_rep1 a__first) o29))

;; "to_rep'result'unused"
(define-fun to_repqtresultqtunused18 () Int
  o29)

;; "map__content'result'unused"
(define-fun map__contentqtresultqtunused6 () (Array Int us_rep)
  a)

;; "temp___369"
(define-fun temp___369 () us_t
  (of_array a o29 o28))

;; "of_array'result'unused"
(define-fun of_arrayqtresultqtunused6 () us_t
  temp___369)

;; "o"
(define-fun o30 () t
  (rt temp___369))

;; "rt'result'unused"
(define-fun rtqtresultqtunused () t
  o30)

(declare-const o31 Int)

;; "Ensures"
(assert (= (to_rep1 a__last) o31))

;; "to_rep'result'unused"
(define-fun to_repqtresultqtunused19 () Int
  o31)

(declare-const o32 Int)

;; "Ensures"
(assert (= (to_rep1 a__first) o32))

;; "to_rep'result'unused"
(define-fun to_repqtresultqtunused20 () Int
  o32)

;; "map__content'result'unused"
(define-fun map__contentqtresultqtunused7 () (Array Int us_rep)
  a)

;; "temp___366"
(define-fun temp___366 () us_t
  (of_array a o32 o31))

;; "of_array'result'unused"
(define-fun of_arrayqtresultqtunused7 () us_t
  temp___366)

;; "int__content'result'unused"
(define-fun int__contentqtresultqtunused5 () Int
  k1)

;; "o"
(define-fun o33 () (Array Int us_rep)
  a)

;; "to_array'result'unused"
(define-fun to_arrayqtresultqtunused2 () (Array Int us_rep)
  o33)

;; "temp___367"
(define-fun temp___367 () us_rep
  (select o33 k1))

;; "get'result'unused"
(define-fun getqtresultqtunused2 () us_rep
  temp___367)

;; "_q "
(define-fun usq_ () us_split_fields
  (us_split_fields1 temp___367))

;; "__split_fields'result'unused"
(define-fun us_split_fieldsqtresultqtunused2 () us_split_fields
  usq_)

;; "o"
(define-fun o34 () natural
  (rec__frame_condition__cell__max_right usq_))

;; "rec__frame_condition__cell__max_right'result'unused"
(define-fun rec__frame_condition__cell__max_rightqtresultqtunused () natural
  o34)

;; "int__content'result'unused"
(define-fun int__contentqtresultqtunused6 () Int
  max2)

(declare-const o35 natural)

;; "Ensures"
(assert (= (to_rep o35) max2))

;; "of_rep'result'unused"
(define-fun of_repqtresultqtunused () natural
  o35)

;; "o"
(define-fun o36 () natural
  (rec__frame_condition__cell__value usq_))

;; "rec__frame_condition__cell__value'result'unused"
(define-fun rec__frame_condition__cell__valueqtresultqtunused2 () natural
  o36)

;; "o"
(define-fun o37 () us_split_fields
  (us_split_fieldsqtmk o36 o35 o34))

;; "__split_fields'mk'result'unused"
(define-fun us_split_fieldsqtmkqtresultqtunused () us_split_fields
  o37)

;; "o"
(define-fun o38 () us_rep
  (us_repqtmk o37))

;; "__rep'mk'result'unused"
(define-fun us_repqtmkqtresultqtunused () us_rep
  o38)

;; "Assert"
(assert (and (<= o29 k1) (<= k1 o28)))

;; "int__content'result'unused"
(define-fun int__contentqtresultqtunused7 () Int
  k1)

;; "o"
(define-fun o39 () (Array Int us_rep)
  a)

;; "to_array'result'unused"
(define-fun to_arrayqtresultqtunused3 () (Array Int us_rep)
  o39)

;; "o"
(define-fun o40 () (Array Int us_rep)
  (store o39 k1 o38))

;; "set'result'unused"
(define-fun setqtresultqtunused () (Array Int us_rep)
  o40)

;; "o"
(define-fun o41 () us_t
  (us_tqtmk o40 o30))

;; "__t'mk'result'unused"
(define-fun us_tqtmkqtresultqtunused () us_t
  o41)

;; "o"
(define-fun o42 () (Array Int us_rep)
  (to_array o41))

;; "to_array'result'unused"
(define-fun to_arrayqtresultqtunused4 () (Array Int us_rep)
  o42)

(declare-const a1 (Array Int us_rep))

;; "a'unused"
(define-fun aqtunused2 () map__ref
  (map__refqtmk a1))

;; "H"
(assert (= a1 o42))

(declare-const o43 Int)

;; "Ensures"
(assert (= (to_rep1 a__last) o43))

;; "to_rep'result'unused"
(define-fun to_repqtresultqtunused21 () Int
  o43)

(declare-const o44 Int)

;; "Ensures"
(assert (= (to_rep1 a__first) o44))

;; "to_rep'result'unused"
(define-fun to_repqtresultqtunused22 () Int
  o44)

;; "map__content'result'unused"
(define-fun map__contentqtresultqtunused8 () (Array Int us_rep)
  a1)

;; "of_array'result'unused"
(define-fun of_arrayqtresultqtunused8 () us_t
  (of_array a1 o44 o43))

(declare-const o45 Int)

;; "Ensures"
(assert (= (to_rep1 a__last) o45))

;; "to_rep'result'unused"
(define-fun to_repqtresultqtunused23 () Int
  o45)

;; "int__content'result'unused"
(define-fun int__contentqtresultqtunused8 () Int
  k1)

;; "o"
(define-fun o46 () Bool
  (ite (<= k1 o45) true false))

;; "infix <='result'unused"
(define-fun infix_lseqqtresultqtunused () Bool
  o46)

;; "int__content'result'unused"
(define-fun int__contentqtresultqtunused9 () Int
  k1)

(declare-const o47 Int)

;; "Ensures"
(assert (= (to_rep1 a__last) o47))

;; "to_rep'result'unused"
(define-fun to_repqtresultqtunused24 () Int
  o47)

(declare-const o48 Int)

;; "Ensures"
(assert (= (to_rep1 a__first) o48))

;; "to_rep'result'unused"
(define-fun to_repqtresultqtunused25 () Int
  o48)

;; "map__content'result'unused"
(define-fun map__contentqtresultqtunused9 () (Array Int us_rep)
  a1)

;; "of_array'result'unused"
(define-fun of_arrayqtresultqtunused9 () us_t
  (of_array a1 o48 o47))

(declare-const o49 Int)

;; "Ensures"
(assert (= (to_rep1 a__first) o49))

;; "to_rep'result'unused"
(define-fun to_repqtresultqtunused26 () Int
  o49)

;; "o"
(define-fun o50 () Bool
  (ite (<= o49 k1) true false))

;; "infix <='result'unused"
(define-fun infix_lseqqtresultqtunused1 () Bool
  o50)

;; "andb'result'unused"
(define-fun andbqtresultqtunused () Bool
  (and o50 o46))

(declare-const a2 (Array Int us_rep))

(declare-const k2 Int)

(declare-const max3 Int)

;; "max'unused"
(define-fun maxqtunused3 () int__ref
  (int__refqtmk max3))

;; "k'unused"
(define-fun kqtunused2 () int__ref
  (int__refqtmk k2))

;; "a'unused"
(define-fun aqtunused3 () map__ref
  (map__refqtmk a2))

;; "LoopInvariant"
(assert (and (<= (to_rep1 a__first) k2) (<= k2 (to_rep1 a__last))))

;; "LoopInvariant"
(assert
  (forall ((i Int))
    (=>
      (and (<= (to_rep1 a__first) i) (<= i k2))
      (<= (to_rep
            (rec__frame_condition__cell__value
              (us_split_fields1 (select a2 i)))) max3))))

;; "LoopInvariant"
(assert
  (forall ((i Int))
    (=>
      (and (<= (to_rep1 a__first) i) (<= i k2))
      (forall ((j Int))
        (=>
          (and (<= i j) (<= j k2))
          (<= (to_rep
                (rec__frame_condition__cell__value
                  (us_split_fields1 (select a2 i)))) (to_rep
                                                       (rec__frame_condition__cell__max_left
                                                         (us_split_fields1
                                                           (select a2 j))))))))))

;; "Assume"
(assert
  (and
    (and (in_range2 k2) (in_range1 max3))
    (forall ((temp___377 Int))
      (=>
        (and
          (<= (to_rep1 a__first) temp___377)
          (<= temp___377 (to_rep1 a__last)))
        (and
          (= (rec__frame_condition__cell__value
               (us_split_fields1 (select a2 temp___377))) (rec__frame_condition__cell__value
                                                            (us_split_fields1
                                                              (select 
                                                              a temp___377))))
          (= (rec__frame_condition__cell__max_right
               (us_split_fields1 (select a2 temp___377))) (rec__frame_condition__cell__max_right
                                                            (us_split_fields1
                                                              (select 
                                                              a temp___377)))))))))

(declare-const o51 Int)

;; "Ensures"
(assert (= (to_rep1 a__last) o51))

;; "to_rep'result'unused"
(define-fun to_repqtresultqtunused27 () Int
  o51)

(declare-const o52 Int)

;; "Ensures"
(assert (= (to_rep1 a__first) o52))

;; "to_rep'result'unused"
(define-fun to_repqtresultqtunused28 () Int
  o52)

;; "map__content'result'unused"
(define-fun map__contentqtresultqtunused10 () (Array Int us_rep)
  a2)

;; "of_array'result'unused"
(define-fun of_arrayqtresultqtunused10 () us_t
  (of_array a2 o52 o51))

(declare-const o53 Int)

;; "Ensures"
(assert (= (to_rep1 a__last) o53))

;; "to_rep'result'unused"
(define-fun to_repqtresultqtunused29 () Int
  o53)

;; "int__content'result'unused"
(define-fun int__contentqtresultqtunused10 () Int
  k2)

;; "infix ='result'unused"
(define-fun infix_eqqtresultqtunused1 () Bool
  (ite (= k2 o53) true false))

;; "H"
(assert (not (= k2 o53)))

;; "int__content'result'unused"
(define-fun int__contentqtresultqtunused11 () Int
  k2)

;; "o"
(define-fun o54 () Int
  (+ k2 1))

;; "infix +'result'unused"
(define-fun infix_plqtresultqtunused () Int
  o54)

;; "Ensures"
(assert (in_range o54))

;; "range_check_'result'unused"
(define-fun range_check_qtresultqtunused1 () Int
  o54)

(declare-const k3 Int)

;; "k'unused"
(define-fun kqtunused3 () int__ref
  (int__refqtmk k3))

;; "H"
(assert (= k3 o54))

(declare-const max4 Int)

;; "max'unused"
(define-fun maxqtunused4 () int__ref
  (int__refqtmk max4))

(declare-const int__contentqtresultqtunused12 Int)

;; "H"
(assert (= int__contentqtresultqtunused12 max3))

(declare-const o55 Int)

;; "Ensures"
(assert (= (to_rep1 a__last) o55))

(declare-const to_repqtresultqtunused30 Int)

;; "H"
(assert (= to_repqtresultqtunused30 o55))

(declare-const o56 Int)

;; "Ensures"
(assert (= (to_rep1 a__first) o56))

(declare-const to_repqtresultqtunused31 Int)

;; "H"
(assert (= to_repqtresultqtunused31 o56))

(declare-const map__contentqtresultqtunused11 (Array Int us_rep))

;; "H"
(assert (= map__contentqtresultqtunused11 a2))

(declare-const temp___3641 us_t)

;; "H"
(assert (= temp___3641 (of_array a2 o56 o55)))

(declare-const of_arrayqtresultqtunused11 us_t)

;; "H"
(assert (= of_arrayqtresultqtunused11 temp___3641))

;; "Assert"
(assert (and (<= o56 k3) (<= k3 o55)))

(declare-const int__contentqtresultqtunused13 Int)

;; "H"
(assert (= int__contentqtresultqtunused13 k3))

(declare-const o57 (Array Int us_rep))

;; "H"
(assert (= o57 a2))

(declare-const to_arrayqtresultqtunused5 (Array Int us_rep))

;; "H"
(assert (= to_arrayqtresultqtunused5 o57))

(declare-const o58 us_rep)

;; "H"
(assert (= o58 (select o57 k3)))

(declare-const getqtresultqtunused3 us_rep)

;; "H"
(assert (= getqtresultqtunused3 o58))

(declare-const o59 us_split_fields)

;; "H"
(assert (= o59 (us_split_fields1 o58)))

(declare-const us_split_fieldsqtresultqtunused3 us_split_fields)

;; "H"
(assert (= us_split_fieldsqtresultqtunused3 o59))

(declare-const o60 natural)

;; "H"
(assert (= o60 (rec__frame_condition__cell__value o59)))

(declare-const rec__frame_condition__cell__valueqtresultqtunused3 natural)

;; "H"
(assert (= rec__frame_condition__cell__valueqtresultqtunused3 o60))

(declare-const o61 Int)

;; "Ensures"
(assert (= (to_rep o60) o61))

(declare-const to_repqtresultqtunused32 Int)

;; "H"
(assert (= to_repqtresultqtunused32 o61))

(declare-const o62 Bool)

;; "H"
(assert (= o62 (ite (< max3 o61) true false)))

(declare-const infix_gtqtresultqtunused1 Bool)

;; "H"
(assert (= infix_gtqtresultqtunused1 o62))

(declare-const spark__branch2 Bool)

(declare-const spark__branchqtunused2 bool__ref)

;; "H"
(assert (= spark__branchqtunused2 (bool__refqtmk spark__branch2)))

;; "H"
(assert (= spark__branch2 o62))

(declare-const bool__contentqtresultqtunused2 Bool)

;; "H"
(assert (= bool__contentqtresultqtunused2 spark__branch2))

(declare-const o63 Int)

(declare-const to_repqtresultqtunused33 Int)

(declare-const o64 Int)

(declare-const to_repqtresultqtunused34 Int)

(declare-const map__contentqtresultqtunused12 (Array Int us_rep))

(declare-const temp___3631 us_t)

(declare-const of_arrayqtresultqtunused12 us_t)

(declare-const int__contentqtresultqtunused14 Int)

(declare-const o65 (Array Int us_rep))

(declare-const to_arrayqtresultqtunused6 (Array Int us_rep))

(declare-const o66 us_rep)

(declare-const getqtresultqtunused4 us_rep)

(declare-const o67 us_split_fields)

(declare-const us_split_fieldsqtresultqtunused4 us_split_fields)

(declare-const o68 natural)

(declare-const rec__frame_condition__cell__valueqtresultqtunused4 natural)

(declare-const o69 Int)

(declare-const to_repqtresultqtunused35 Int)

;; "H"
(assert
  (ite (= spark__branch2 true)
    (and
      (= (to_rep1 a__last) o63)
      (and
        (= to_repqtresultqtunused33 o63)
        (and
          (= (to_rep1 a__first) o64)
          (and
            (= to_repqtresultqtunused34 o64)
            (and
              (= map__contentqtresultqtunused12 a2)
              (and
                (= temp___3631 (of_array a2 o64 o63))
                (and
                  (= of_arrayqtresultqtunused12 temp___3631)
                  (and
                    (and (<= o64 k3) (<= k3 o63))
                    (and
                      (= int__contentqtresultqtunused14 k3)
                      (and
                        (= o65 a2)
                        (and
                          (= to_arrayqtresultqtunused6 o65)
                          (and
                            (= o66 (select o65 k3))
                            (and
                              (= getqtresultqtunused4 o66)
                              (and
                                (= o67 (us_split_fields1 o66))
                                (and
                                  (= us_split_fieldsqtresultqtunused4 
                                  o67)
                                  (and
                                    (= o68 (rec__frame_condition__cell__value
                                             o67))
                                    (and
                                      (= rec__frame_condition__cell__valueqtresultqtunused4 
                                      o68)
                                      (and
                                        (= (to_rep o68) o69)
                                        (and
                                          (= to_repqtresultqtunused35 
                                          o69)
                                          (= max4 o69))))))))))))))))))))
    (= max4 max3)))

(declare-const o70 Int)

;; "Ensures"
(assert (= (to_rep1 a__last) o70))

;; "to_rep'result'unused"
(define-fun to_repqtresultqtunused36 () Int
  o70)

(declare-const o71 Int)

;; "Ensures"
(assert (= (to_rep1 a__first) o71))

;; "to_rep'result'unused"
(define-fun to_repqtresultqtunused37 () Int
  o71)

;; "map__content'result'unused"
(define-fun map__contentqtresultqtunused13 () (Array Int us_rep)
  a2)

;; "temp___369"
(define-fun temp___3691 () us_t
  (of_array a2 o71 o70))

;; "of_array'result'unused"
(define-fun of_arrayqtresultqtunused13 () us_t
  temp___3691)

;; "o"
(define-fun o72 () t
  (rt temp___3691))

;; "rt'result'unused"
(define-fun rtqtresultqtunused1 () t
  o72)

(declare-const o73 Int)

;; "Ensures"
(assert (= (to_rep1 a__last) o73))

;; "to_rep'result'unused"
(define-fun to_repqtresultqtunused38 () Int
  o73)

(declare-const o74 Int)

;; "Ensures"
(assert (= (to_rep1 a__first) o74))

;; "to_rep'result'unused"
(define-fun to_repqtresultqtunused39 () Int
  o74)

;; "map__content'result'unused"
(define-fun map__contentqtresultqtunused14 () (Array Int us_rep)
  a2)

;; "temp___366"
(define-fun temp___3661 () us_t
  (of_array a2 o74 o73))

;; "of_array'result'unused"
(define-fun of_arrayqtresultqtunused14 () us_t
  temp___3661)

;; "int__content'result'unused"
(define-fun int__contentqtresultqtunused15 () Int
  k3)

;; "o"
(define-fun o75 () (Array Int us_rep)
  a2)

;; "to_array'result'unused"
(define-fun to_arrayqtresultqtunused7 () (Array Int us_rep)
  o75)

;; "temp___367"
(define-fun temp___3671 () us_rep
  (select o75 k3))

;; "get'result'unused"
(define-fun getqtresultqtunused5 () us_rep
  temp___3671)

;; "_q "
(define-fun usq_1 () us_split_fields
  (us_split_fields1 temp___3671))

;; "__split_fields'result'unused"
(define-fun us_split_fieldsqtresultqtunused5 () us_split_fields
  usq_1)

;; "o"
(define-fun o76 () natural
  (rec__frame_condition__cell__max_right usq_1))

;; "rec__frame_condition__cell__max_right'result'unused"
(define-fun rec__frame_condition__cell__max_rightqtresultqtunused1 () natural
  o76)

;; "int__content'result'unused"
(define-fun int__contentqtresultqtunused16 () Int
  max4)

(declare-const o77 natural)

;; "Ensures"
(assert (= (to_rep o77) max4))

;; "of_rep'result'unused"
(define-fun of_repqtresultqtunused1 () natural
  o77)

;; "o"
(define-fun o78 () natural
  (rec__frame_condition__cell__value usq_1))

;; "rec__frame_condition__cell__value'result'unused"
(define-fun rec__frame_condition__cell__valueqtresultqtunused5 () natural
  o78)

;; "o"
(define-fun o79 () us_split_fields
  (us_split_fieldsqtmk o78 o77 o76))

;; "__split_fields'mk'result'unused"
(define-fun us_split_fieldsqtmkqtresultqtunused1 () us_split_fields
  o79)

;; "o"
(define-fun o80 () us_rep
  (us_repqtmk o79))

;; "__rep'mk'result'unused"
(define-fun us_repqtmkqtresultqtunused1 () us_rep
  o80)

;; "Assert"
(assert (and (<= o71 k3) (<= k3 o70)))

;; "int__content'result'unused"
(define-fun int__contentqtresultqtunused17 () Int
  k3)

;; "o"
(define-fun o81 () (Array Int us_rep)
  a2)

;; "to_array'result'unused"
(define-fun to_arrayqtresultqtunused8 () (Array Int us_rep)
  o81)

;; "o"
(define-fun o82 () (Array Int us_rep)
  (store o81 k3 o80))

;; "set'result'unused"
(define-fun setqtresultqtunused1 () (Array Int us_rep)
  o82)

;; "o"
(define-fun o83 () us_t
  (us_tqtmk o82 o72))

;; "__t'mk'result'unused"
(define-fun us_tqtmkqtresultqtunused1 () us_t
  o83)

;; "o"
(define-fun o84 () (Array Int us_rep)
  (to_array o83))

;; "to_array'result'unused"
(define-fun to_arrayqtresultqtunused9 () (Array Int us_rep)
  o84)

(declare-const a3 (Array Int us_rep))

;; "a'unused"
(define-fun aqtunused4 () map__ref
  (map__refqtmk a3))

;; "H"
(assert (= a3 o84))

(declare-const o85 Int)

;; "Ensures"
(assert (= (to_rep1 a__last) o85))

;; "to_rep'result'unused"
(define-fun to_repqtresultqtunused40 () Int
  o85)

(declare-const o86 Int)

;; "Ensures"
(assert (= (to_rep1 a__first) o86))

;; "to_rep'result'unused"
(define-fun to_repqtresultqtunused41 () Int
  o86)

;; "map__content'result'unused"
(define-fun map__contentqtresultqtunused15 () (Array Int us_rep)
  a3)

;; "of_array'result'unused"
(define-fun of_arrayqtresultqtunused15 () us_t
  (of_array a3 o86 o85))

(declare-const o87 Int)

;; "Ensures"
(assert (= (to_rep1 a__last) o87))

;; "to_rep'result'unused"
(define-fun to_repqtresultqtunused42 () Int
  o87)

;; "int__content'result'unused"
(define-fun int__contentqtresultqtunused18 () Int
  k3)

;; "o"
(define-fun o88 () Bool
  (ite (<= k3 o87) true false))

;; "infix <='result'unused"
(define-fun infix_lseqqtresultqtunused2 () Bool
  o88)

;; "int__content'result'unused"
(define-fun int__contentqtresultqtunused19 () Int
  k3)

(declare-const o89 Int)

;; "Ensures"
(assert (= (to_rep1 a__last) o89))

;; "to_rep'result'unused"
(define-fun to_repqtresultqtunused43 () Int
  o89)

(declare-const o90 Int)

;; "Ensures"
(assert (= (to_rep1 a__first) o90))

;; "to_rep'result'unused"
(define-fun to_repqtresultqtunused44 () Int
  o90)

;; "map__content'result'unused"
(define-fun map__contentqtresultqtunused16 () (Array Int us_rep)
  a3)

;; "of_array'result'unused"
(define-fun of_arrayqtresultqtunused16 () us_t
  (of_array a3 o90 o89))

(declare-const o91 Int)

;; "Ensures"
(assert (= (to_rep1 a__first) o91))

;; "to_rep'result'unused"
(define-fun to_repqtresultqtunused45 () Int
  o91)

;; "o"
(define-fun o92 () Bool
  (ite (<= o91 k3) true false))

;; "infix <='result'unused"
(define-fun infix_lseqqtresultqtunused3 () Bool
  o92)

;; "andb'result'unused"
(define-fun andbqtresultqtunused1 () Bool
  (and o92 o88))

;; "LoopInvariant"
(assert (and (<= (to_rep1 a__first) k3) (<= k3 (to_rep1 a__last))))

;; "LoopInvariant"
(assert
  (forall ((i Int))
    (=>
      (and (<= (to_rep1 a__first) i) (<= i k3))
      (<= (to_rep
            (rec__frame_condition__cell__value
              (us_split_fields1 (select a3 i)))) max4))))

(declare-const i Int)

;; "H"
(assert (<= (to_rep1 a__first) i))

;; "H"
(assert (<= i k3))

(declare-const j Int)

;; "H"
(assert (<= i j))

;; "H"
(assert (<= j k3))

;; Goal "def'vc"
;; File "frame_condition.ads", line 10, characters 0-0
(assert
  (not
  (<= (to_rep
        (rec__frame_condition__cell__value (us_split_fields1 (select a3 i)))) 
  (to_rep
    (rec__frame_condition__cell__max_left (us_split_fields1 (select a3 j)))))))

(check-sat)
